Gurobi 12.0.1:   lim:time = 28800
  mip:bestbound = 1
Set parameter LogToConsole to value 1
  tech:outlev = 1
Set parameter InfUnbdInfo to value 1
Gurobi Optimizer version 12.0.1 build v12.0.1rc0 (win64 - Windows 11.0 (22631.2))

CPU model: Intel(R) Core(TM) i7-10700 CPU @ 2.90GHz, instruction set [SSE2|AVX|AVX2]
Thread count: 8 physical cores, 16 logical processors, using up to 16 threads

Non-default parameters:
TimeLimit  28800
InfUnbdInfo  1

Optimize a model with 442 rows, 1265 columns and 6134 nonzeros
Model fingerprint: 0x6ce1e732
Model has 8 quadratic objective terms
Model has 12 quadratic constraints
Model has 384 simple general constraints
  384 AND
Variable types: 20 continuous, 1245 integer (0 binary)
Coefficient statistics:
  Matrix range     [1e+00, 1e+05]
  QMatrix range    [3e+00, 2e+01]
  QLMatrix range   [3e+00, 2e+01]
  Objective range  [2e+01, 4e+02]
  QObjective range [3e+00, 2e+01]
  Bounds range     [1e+00, 1e+00]
  RHS range        [1e+00, 1e+05]
  QRHS range       [8e+01, 1e+02]
Presolve added 1052 rows and 0 columns
Presolve removed 0 rows and 135 columns
Presolve time: 0.07s
Presolved: 2513 rows, 1948 columns, 11112 nonzeros
Variable types: 16 continuous, 1932 integer (1932 binary)

Root relaxation: objective 7.452793e+02, 179 iterations, 0.01 seconds (0.01 work units)

    Nodes    |    Current Node    |     Objective Bounds      |     Work
 Expl Unexpl |  Obj  Depth IntInf | Incumbent    BestBd   Gap | It/Node Time

     0     0  745.27935    0   38          -  745.27935      -     -    0s
H    0     0                    2326.6500000  745.27935  68.0%     -    0s
H    0     0                    2312.6500000  745.27935  67.8%     -    0s
H    0     0                    1882.3500000  745.27935  60.4%     -    0s
H    0     0                    1880.8500000  745.27935  60.4%     -    0s
H    0     0                    1872.8500000  745.27935  60.2%     -    0s
H    0     0                    1864.8500000  745.27935  60.0%     -    0s
H    0     0                    1684.7300000  829.31076  50.8%     -    0s
     0     0  904.14500    0   25 1684.73000  904.14500  46.3%     -    0s
     0     0  921.93000    0   19 1684.73000  921.93000  45.3%     -    0s
     0     0  921.93000    0   18 1684.73000  921.93000  45.3%     -    0s
     0     0  921.93000    0   18 1684.73000  921.93000  45.3%     -    0s
     0     0  921.93000    0   18 1684.73000  921.93000  45.3%     -    0s
H    0     0                    1341.5000000  921.93000  31.3%     -    0s
     0     0  921.93000    0   18 1341.50000  921.93000  31.3%     -    0s
H    0     0                    1290.5300000  921.93000  28.6%     -    0s
     0     0  921.93000    0   18 1290.53000  921.93000  28.6%     -    0s
     0     0  921.93000    0   18 1290.53000  921.93000  28.6%     -    0s
     0     2  921.93000    0   18 1290.53000  921.93000  28.6%     -    1s
H   40    61                    1268.1500000  921.98221  27.3%  22.9    1s
H   45    61                    1199.6900000  921.98622  23.1%  20.7    1s
H  103   108                    1193.8300000  921.98622  22.8%  15.8    1s
H  104   108                    1177.6700000  921.98622  21.7%  15.7    1s
H  132   146                    1154.7700000  921.98622  20.2%  14.0    1s
*  444   297              12    1100.1700000  922.14631  16.2%   9.6    1s
* 2133   655              10    1084.5500000  973.92178  10.2%  11.4    3s

Cutting planes:
  Learned: 3
  Gomory: 2
  Cover: 14
  Implied bound: 40
  MIR: 9
  Inf proof: 18
  Zero half: 7
  RLT: 36

Explored 4409 nodes (55149 simplex iterations) in 5.00 seconds (1.73 work units)
Thread count was 16 (of 16 available processors)

Solution count 10: 1084.55 1100.17 1154.77 ... 1684.73

Optimal solution found (tolerance 1.00e-04)
Best objective 1.084550000000e+03, best bound 1.084550000000e+03, gap 0.0000%

AMPL MP initial flat model has 881 variables (0 integer, 861 binary);
Objectives: 1 quadratic; 
Constraints:  442 linear; 12 quadratic;
Logical expressions:  384 and;

AMPL MP final model has 1265 variables (0 integer, 1245 binary);
Objectives: 1 quadratic; 
Constraints:  442 linear; 12 quadratic;
Logical expressions:  384 and;


-----RESULTS INFO-----
running_time:  5.266
TC.best_bound:  1084.55
TC:  1084.55
MIP Gap (%):  0
=== Vehicle Routes ===
Vehicle 1: 0 → 18
Vehicle 1: 18 → 0
Vehicle 2: 0 → 14
Vehicle 2: 14 → 0
Vehicle 3: 0 → 2
Vehicle 3: 1 → 5
Vehicle 3: 2 → 20
Vehicle 3: 3 → 1
Vehicle 3: 4 → 0
Vehicle 3: 5 → 4
Vehicle 3: 20 → 3

=== Full Vehicle Routes ===
Vehicle 1: 0 → 18 → 0
Vehicle 2: 0 → 14 → 0
Vehicle 3: 0 → 2 → 20 → 3 → 1 → 5 → 4 → 0
Arc used by MRT line: y variables:
MRT used: 14 → 15
Customer assigment to PL: u variables:
6 20
7 18
8 14
9 15
10 18
11 18
12 18
13 20
Node is served by regular vehicle: g variables:
1
2
3
4
5
18
20
14
Customer assigment to Home delivery: gm variables:
1
2
3
4
5
Customer's demand delivered to PL: l variables:
6
7
8
9
10
11
12
13
